NAME : XML100_3263_19
DIMENSION : 101
NB_CLUSTERS : 3
CLUSTERING_ALG : KMeans
CLUSTERING_PARAMS : k(2)
CLUSTERS
1 0
2 3 4 7 8 10 12 13 14 16 18 19 20 24 25 26 27 28 30 34 35 38 40 41 43 45 46 49 50 51 53 54 56 58 59 60 61 62 64 66 67 68 69 70 72 73 74 75 76 78 82 83 84 87 88 89 90 91 93 95 97 98 99
3 1 2 5 6 9 11 15 17 21 22 23 29 31 32 33 36 37 39 42 44 47 48 52 55 57 63 65 71 77 79 80 81 85 86 92 94 96 100
EOF